(set-logic QF_LIA)
(declare-fun x0 () Int)
(declare-fun x1 () Int)
(declare-fun x2 () Int)
(declare-fun x3 () Int)
(declare-fun x4 () Int)
(declare-fun x5 () Int)
(declare-fun x6 () Int)
(declare-fun x7 () Int)
(declare-fun x8 () Int)
(declare-fun x9 () Int)
(declare-fun A0 () Bool)
(declare-fun A1 () Bool)
(declare-fun A2 () Bool)
(declare-fun A3 () Bool)
(declare-fun A4 () Bool)
(declare-fun A5 () Bool)
(declare-fun A6 () Bool)
(declare-fun A7 () Bool)
(declare-fun A8 () Bool)
(declare-fun A9 () Bool)
(assert (let ((.def_0 (* 1 x4))) (let ((.def_1 (* 1 x8))) (let ((.def_2 (+ .def_1 .def_0))) (let ((.def_3 (< .def_2 (- 1)))) (let ((.def_4 (and A7 .def_3))) (let ((.def_5 (not .def_4))) (let ((.def_6 (* 1 x2))) (let ((.def_7 (< .def_6 1))) (let ((.def_8 (or .def_7 A5))) (let ((.def_9 (not .def_8))) (let ((.def_10 (or .def_9 .def_5))) (let ((.def_11 (* (- 1) x3))) (let ((.def_12 (* (- 1) x6))) (let ((.def_13 (+ .def_12 .def_11))) (let ((.def_14 (< .def_13 1))) (let ((.def_15 (not .def_14))) (let ((.def_16 (and .def_15 A7))) (let ((.def_17 (not .def_16))) (let ((.def_18 (not A5))) (let ((.def_19 (not A3))) (let ((.def_20 (and .def_19 .def_18))) (let ((.def_21 (= .def_20 .def_17))) (let ((.def_22 (and .def_21 .def_10))) (let ((.def_23 (< .def_0 1))) (let ((.def_24 (not .def_23))) (let ((.def_25 (and A2 .def_24))) (let ((.def_26 (* (- 1) x0))) (let ((.def_27 (< .def_26 1))) (let ((.def_28 (not .def_27))) (let ((.def_29 (or .def_28 A8))) (let ((.def_30 (not .def_29))) (let ((.def_31 (or .def_30 .def_25))) (let ((.def_32 (* 1 x7))) (let ((.def_33 (+ .def_6 .def_32))) (let ((.def_34 (< .def_33 1))) (let ((.def_35 (= .def_19 .def_34))) (let ((.def_36 (* 1 x1))) (let ((.def_37 (+ .def_6 .def_36))) (let ((.def_38 (< .def_37 (- 1)))) (let ((.def_39 (not .def_38))) (let ((.def_40 (or A7 .def_39))) (let ((.def_41 (and .def_40 .def_35))) (let ((.def_42 (and .def_41 .def_31))) (let ((.def_43 (and .def_42 .def_22))) (let ((.def_44 (not .def_43))) (let ((.def_45 (* (- 1) x9))) (let ((.def_46 (+ .def_26 .def_45))) (let ((.def_47 (< .def_46 1))) (let ((.def_48 (not .def_47))) (let ((.def_49 (= A6 .def_48))) (let ((.def_50 (< .def_12 1))) (let ((.def_51 (not .def_50))) (let ((.def_52 (or A0 .def_51))) (let ((.def_53 (and .def_52 .def_49))) (let ((.def_54 (not .def_53))) (let ((.def_55 (< .def_12 (- 1)))) (let ((.def_56 (not .def_55))) (let ((.def_57 (and .def_56 A4))) (let ((.def_58 (not .def_57))) (let ((.def_59 (not A8))) (let ((.def_60 (and .def_59 A0))) (let ((.def_61 (not .def_60))) (let ((.def_62 (or .def_61 .def_58))) (let ((.def_63 (and .def_62 .def_54))) (let ((.def_64 (not A0))) (let ((.def_65 (* (- 1) x2))) (let ((.def_66 (< .def_65 (- 1)))) (let ((.def_67 (not .def_66))) (let ((.def_68 (or .def_67 .def_64))) (let ((.def_69 (not .def_68))) (let ((.def_70 (not A6))) (let ((.def_71 (* 1 x5))) (let ((.def_72 (+ .def_45 .def_71))) (let ((.def_73 (< .def_72 (- 1)))) (let ((.def_74 (not .def_73))) (let ((.def_75 (or .def_74 .def_70))) (let ((.def_76 (not .def_75))) (let ((.def_77 (and .def_76 .def_69))) (let ((.def_78 (not .def_77))) (let ((.def_79 (* (- 1) x4))) (let ((.def_80 (< .def_79 1))) (let ((.def_81 (and .def_80 .def_18))) (let ((.def_82 (not .def_81))) (let ((.def_83 (= .def_19 .def_70))) (let ((.def_84 (or .def_83 .def_82))) (let ((.def_85 (and .def_84 .def_78))) (let ((.def_86 (and .def_85 .def_63))) (let ((.def_87 (and .def_86 .def_44))) (let ((.def_88 (* 1 x3))) (let ((.def_89 (+ .def_26 .def_88))) (let ((.def_90 (< .def_89 1))) (let ((.def_91 (not A1))) (let ((.def_92 (and .def_91 .def_90))) (let ((.def_93 (* (- 1) x5))) (let ((.def_94 (+ .def_93 .def_11))) (let ((.def_95 (< .def_94 1))) (let ((.def_96 (not .def_95))) (let ((.def_97 (* 1 x9))) (let ((.def_98 (< .def_97 (- 1)))) (let ((.def_99 (not .def_98))) (let ((.def_100 (or .def_99 .def_96))) (let ((.def_101 (not .def_100))) (let ((.def_102 (or .def_101 .def_92))) (let ((.def_103 (not .def_102))) (let ((.def_104 (* 1 x0))) (let ((.def_105 (+ .def_45 .def_104))) (let ((.def_106 (< .def_105 (- 1)))) (let ((.def_107 (not .def_106))) (let ((.def_108 (and .def_19 .def_107))) (let ((.def_109 (not .def_108))) (let ((.def_110 (< .def_65 1))) (let ((.def_111 (and .def_110 A5))) (let ((.def_112 (not .def_111))) (let ((.def_113 (and .def_112 .def_109))) (let ((.def_114 (not .def_113))) (let ((.def_115 (and .def_114 .def_103))) (let ((.def_116 (not .def_115))) (let ((.def_117 (< .def_26 (- 1)))) (let ((.def_118 (not .def_117))) (let ((.def_119 (= .def_118 .def_19))) (let ((.def_120 (not .def_119))) (let ((.def_121 (not .def_7))) (let ((.def_122 (or .def_121 .def_7))) (let ((.def_123 (and .def_122 .def_120))) (let ((.def_124 (< .def_71 1))) (let ((.def_125 (not .def_124))) (let ((.def_126 (and A6 .def_125))) (let ((.def_127 (< .def_71 (- 1)))) (let ((.def_128 (and A6 .def_127))) (let ((.def_129 (not .def_128))) (let ((.def_130 (and .def_129 .def_126))) (let ((.def_131 (and .def_130 .def_123))) (let ((.def_132 (not .def_131))) (let ((.def_133 (or .def_132 .def_116))) (let ((.def_134 (or A7 .def_19))) (let ((.def_135 (not .def_134))) (let ((.def_136 (not A2))) (let ((.def_137 (not A4))) (let ((.def_138 (or .def_137 .def_136))) (let ((.def_139 (not .def_138))) (let ((.def_140 (or .def_139 .def_135))) (let ((.def_141 (not .def_140))) (let ((.def_142 (* (- 1) x8))) (let ((.def_143 (+ .def_142 .def_26))) (let ((.def_144 (< .def_143 (- 1)))) (let ((.def_145 (or .def_144 A4))) (let ((.def_146 (* (- 1) x7))) (let ((.def_147 (+ .def_104 .def_146))) (let ((.def_148 (< .def_147 1))) (let ((.def_149 (not .def_148))) (let ((.def_150 (and .def_149 .def_59))) (let ((.def_151 (not .def_150))) (let ((.def_152 (or .def_151 .def_145))) (let ((.def_153 (not .def_152))) (let ((.def_154 (or .def_153 .def_141))) (let ((.def_155 (* 1 x6))) (let ((.def_156 (+ .def_32 .def_155))) (let ((.def_157 (< .def_156 (- 1)))) (let ((.def_158 (not .def_157))) (let ((.def_159 (+ .def_146 .def_65))) (let ((.def_160 (< .def_159 1))) (let ((.def_161 (or .def_160 .def_158))) (let ((.def_162 (+ .def_0 .def_146))) (let ((.def_163 (< .def_162 1))) (let ((.def_164 (not .def_163))) (let ((.def_165 (< .def_45 (- 1)))) (let ((.def_166 (not .def_165))) (let ((.def_167 (and .def_166 .def_164))) (let ((.def_168 (and .def_167 .def_161))) (let ((.def_169 (+ .def_104 .def_36))) (let ((.def_170 (< .def_169 (- 1)))) (let ((.def_171 (< .def_142 (- 1)))) (let ((.def_172 (or .def_171 .def_170))) (let ((.def_173 (not .def_172))) (let ((.def_174 (not A7))) (let ((.def_175 (or .def_174 .def_165))) (let ((.def_176 (or .def_175 .def_173))) (let ((.def_177 (not .def_176))) (let ((.def_178 (and .def_177 .def_168))) (let ((.def_179 (not .def_178))) (let ((.def_180 (or .def_179 .def_154))) (let ((.def_181 (and .def_180 .def_133))) (let ((.def_182 (not .def_181))) (let ((.def_183 (and .def_182 .def_87))) (let ((.def_184 (not .def_183))) (let ((.def_185 (+ .def_97 .def_12))) (let ((.def_186 (< .def_185 1))) (let ((.def_187 (not .def_186))) (let ((.def_188 (or .def_187 .def_165))) (let ((.def_189 (* (- 1) x1))) (let ((.def_190 (< .def_189 (- 1)))) (let ((.def_191 (and A7 .def_190))) (let ((.def_192 (or .def_191 .def_188))) (let ((.def_193 (+ .def_88 .def_0))) (let ((.def_194 (< .def_193 1))) (let ((.def_195 (or .def_194 .def_47))) (let ((.def_196 (< .def_32 (- 1)))) (let ((.def_197 (not .def_196))) (let ((.def_198 (and .def_197 A9))) (let ((.def_199 (and .def_198 .def_195))) (let ((.def_200 (and .def_199 .def_192))) (let ((.def_201 (< .def_142 1))) (let ((.def_202 (not .def_201))) (let ((.def_203 (and .def_202 .def_137))) (let ((.def_204 (not .def_203))) (let ((.def_205 (or A8 A4))) (let ((.def_206 (and .def_205 .def_204))) (let ((.def_207 (not .def_206))) (let ((.def_208 (or .def_136 .def_99))) (let ((.def_209 (+ .def_189 .def_97))) (let ((.def_210 (< .def_209 (- 1)))) (let ((.def_211 (not .def_210))) (let ((.def_212 (= .def_211 A0))) (let ((.def_213 (and .def_212 .def_208))) (let ((.def_214 (and .def_213 .def_207))) (let ((.def_215 (or .def_214 .def_200))) (let ((.def_216 (not .def_215))) (let ((.def_217 (or .def_19 A3))) (let ((.def_218 (not .def_217))) (let ((.def_219 (+ .def_45 .def_36))) (let ((.def_220 (< .def_219 1))) (let ((.def_221 (= .def_220 A7))) (let ((.def_222 (not .def_221))) (let ((.def_223 (or .def_222 .def_218))) (let ((.def_224 (+ .def_71 .def_1))) (let ((.def_225 (< .def_224 1))) (let ((.def_226 (< .def_93 1))) (let ((.def_227 (not .def_226))) (let ((.def_228 (or .def_227 .def_225))) (let ((.def_229 (not .def_228))) (let ((.def_230 (+ .def_155 .def_79))) (let ((.def_231 (< .def_230 (- 1)))) (let ((.def_232 (< .def_1 1))) (let ((.def_233 (not .def_232))) (let ((.def_234 (and .def_233 .def_231))) (let ((.def_235 (not .def_234))) (let ((.def_236 (and .def_235 .def_229))) (let ((.def_237 (or .def_236 .def_223))) (let ((.def_238 (not .def_237))) (let ((.def_239 (< .def_11 1))) (let ((.def_240 (or .def_91 .def_239))) (let ((.def_241 (not .def_240))) (let ((.def_242 (+ .def_189 .def_104))) (let ((.def_243 (< .def_242 1))) (let ((.def_244 (not .def_243))) (let ((.def_245 (or .def_244 .def_64))) (let ((.def_246 (not .def_245))) (let ((.def_247 (= .def_246 .def_241))) (let ((.def_248 (and A4 .def_124))) (let ((.def_249 (or .def_137 .def_137))) (let ((.def_250 (and .def_249 .def_248))) (let ((.def_251 (and .def_250 .def_247))) (let ((.def_252 (not .def_251))) (let ((.def_253 (or .def_252 .def_238))) (let ((.def_254 (not .def_253))) (let ((.def_255 (and .def_254 .def_216))) (let ((.def_256 (not .def_255))) (let ((.def_257 (+ .def_32 .def_189))) (let ((.def_258 (< .def_257 (- 1)))) (let ((.def_259 (= A4 .def_258))) (let ((.def_260 (not .def_259))) (let ((.def_261 (+ .def_146 .def_36))) (let ((.def_262 (< .def_261 1))) (let ((.def_263 (+ .def_12 .def_65))) (let ((.def_264 (< .def_263 1))) (let ((.def_265 (not .def_264))) (let ((.def_266 (or .def_265 .def_262))) (let ((.def_267 (not .def_266))) (let ((.def_268 (or .def_267 .def_260))) (let ((.def_269 (not .def_268))) (let ((.def_270 (< .def_146 1))) (let ((.def_271 (or .def_270 A3))) (let ((.def_272 (+ .def_32 .def_26))) (let ((.def_273 (< .def_272 1))) (let ((.def_274 (not .def_273))) (let ((.def_275 (and A1 .def_274))) (let ((.def_276 (not .def_275))) (let ((.def_277 (and .def_276 .def_271))) (let ((.def_278 (and .def_277 .def_269))) (let ((.def_279 (and .def_186 .def_19))) (let ((.def_280 (+ .def_146 .def_1))) (let ((.def_281 (< .def_280 1))) (let ((.def_282 (and .def_281 .def_148))) (let ((.def_283 (and .def_282 .def_279))) (let ((.def_284 (+ .def_6 .def_88))) (let ((.def_285 (< .def_284 1))) (let ((.def_286 (not .def_285))) (let ((.def_287 (+ .def_11 .def_71))) (let ((.def_288 (< .def_287 (- 1)))) (let ((.def_289 (not .def_288))) (let ((.def_290 (and .def_289 .def_286))) (let ((.def_291 (not .def_290))) (let ((.def_292 (+ .def_189 .def_11))) (let ((.def_293 (< .def_292 1))) (let ((.def_294 (and .def_137 .def_293))) (let ((.def_295 (not .def_294))) (let ((.def_296 (or .def_295 .def_291))) (let ((.def_297 (and .def_296 .def_283))) (let ((.def_298 (or .def_297 .def_278))) (let ((.def_299 (not .def_298))) (let ((.def_300 (< .def_189 1))) (let ((.def_301 (not .def_300))) (let ((.def_302 (and A6 .def_301))) (let ((.def_303 (not .def_302))) (let ((.def_304 (or .def_64 A1))) (let ((.def_305 (or .def_304 .def_303))) (let ((.def_306 (< .def_1 (- 1)))) (let ((.def_307 (and A6 .def_306))) (let ((.def_308 (not .def_307))) (let ((.def_309 (and .def_66 .def_125))) (let ((.def_310 (or .def_309 .def_308))) (let ((.def_311 (or .def_310 .def_305))) (let ((.def_312 (+ .def_155 .def_146))) (let ((.def_313 (< .def_312 (- 1)))) (let ((.def_314 (+ .def_97 .def_71))) (let ((.def_315 (< .def_314 (- 1)))) (let ((.def_316 (or .def_315 .def_313))) (let ((.def_317 (not .def_316))) (let ((.def_318 (+ .def_32 .def_97))) (let ((.def_319 (< .def_318 1))) (let ((.def_320 (not .def_319))) (let ((.def_321 (or .def_320 A0))) (let ((.def_322 (not .def_321))) (let ((.def_323 (or .def_322 .def_317))) (let ((.def_324 (not .def_323))) (let ((.def_325 (< .def_155 1))) (let ((.def_326 (not .def_325))) (let ((.def_327 (= A0 .def_326))) (let ((.def_328 (not .def_327))) (let ((.def_329 (= .def_136 A3))) (let ((.def_330 (or .def_329 .def_328))) (let ((.def_331 (and .def_330 .def_324))) (let ((.def_332 (and .def_331 .def_311))) (let ((.def_333 (= .def_332 .def_299))) (let ((.def_334 (not .def_333))) (let ((.def_335 (= .def_334 .def_256))) (let ((.def_336 (and .def_335 .def_184))) (let ((.def_337 (and .def_66 A8))) (let ((.def_338 (not .def_337))) (let ((.def_339 (or A0 .def_18))) (let ((.def_340 (not .def_339))) (let ((.def_341 (and .def_340 .def_338))) (let ((.def_342 (not .def_341))) (let ((.def_343 (+ .def_155 .def_142))) (let ((.def_344 (< .def_343 (- 1)))) (let ((.def_345 (< .def_104 1))) (let ((.def_346 (not .def_345))) (let ((.def_347 (or .def_346 .def_344))) (let ((.def_348 (+ .def_71 .def_104))) (let ((.def_349 (< .def_348 (- 1)))) (let ((.def_350 (and .def_349 .def_91))) (let ((.def_351 (and .def_350 .def_347))) (let ((.def_352 (or .def_351 .def_342))) (let ((.def_353 (not .def_190))) (let ((.def_354 (and A6 .def_353))) (let ((.def_355 (not .def_354))) (let ((.def_356 (< .def_97 1))) (let ((.def_357 (not .def_356))) (let ((.def_358 (or A7 .def_357))) (let ((.def_359 (and .def_358 .def_355))) (let ((.def_360 (+ .def_32 .def_11))) (let ((.def_361 (< .def_360 1))) (let ((.def_362 (not .def_361))) (let ((.def_363 (and A5 .def_362))) (let ((.def_364 (< .def_79 (- 1)))) (let ((.def_365 (+ .def_71 .def_11))) (let ((.def_366 (< .def_365 (- 1)))) (let ((.def_367 (or .def_366 .def_364))) (let ((.def_368 (or .def_367 .def_363))) (let ((.def_369 (not .def_368))) (let ((.def_370 (or .def_369 .def_359))) (let ((.def_371 (or .def_370 .def_352))) (let ((.def_372 (not .def_371))) (let ((.def_373 (or A7 A5))) (let ((.def_374 (not .def_373))) (let ((.def_375 (+ .def_1 .def_6))) (let ((.def_376 (< .def_375 1))) (let ((.def_377 (and A3 .def_376))) (let ((.def_378 (or .def_377 .def_374))) (let ((.def_379 (not .def_378))) (let ((.def_380 (+ .def_65 .def_97))) (let ((.def_381 (< .def_380 1))) (let ((.def_382 (not .def_381))) (let ((.def_383 (and .def_382 A5))) (let ((.def_384 (not .def_270))) (let ((.def_385 (+ .def_71 .def_45))) (let ((.def_386 (< .def_385 1))) (let ((.def_387 (not .def_386))) (let ((.def_388 (or .def_387 .def_384))) (let ((.def_389 (not .def_388))) (let ((.def_390 (and .def_389 .def_383))) (let ((.def_391 (and .def_390 .def_379))) (let ((.def_392 (not .def_391))) (let ((.def_393 (and A6 .def_166))) (let ((.def_394 (= .def_91 .def_64))) (let ((.def_395 (not .def_394))) (let ((.def_396 (or .def_395 .def_393))) (let ((.def_397 (or .def_136 A6))) (let ((.def_398 (+ .def_155 .def_88))) (let ((.def_399 (< .def_398 (- 1)))) (let ((.def_400 (+ .def_65 .def_104))) (let ((.def_401 (< .def_400 1))) (let ((.def_402 (or .def_401 .def_399))) (let ((.def_403 (and .def_402 .def_397))) (let ((.def_404 (not .def_403))) (let ((.def_405 (or .def_404 .def_396))) (let ((.def_406 (and .def_405 .def_392))) (let ((.def_407 (and .def_406 .def_372))) (let ((.def_408 (not .def_407))) (let ((.def_409 (and .def_70 .def_39))) (let ((.def_410 (not .def_409))) (let ((.def_411 (+ .def_142 .def_155))) (let ((.def_412 (< .def_411 1))) (let ((.def_413 (or .def_59 .def_412))) (let ((.def_414 (and .def_413 .def_410))) (let ((.def_415 (or .def_18 A9))) (let ((.def_416 (not .def_415))) (let ((.def_417 (+ .def_36 .def_0))) (let ((.def_418 (< .def_417 (- 1)))) (let ((.def_419 (not .def_418))) (let ((.def_420 (= A2 .def_419))) (let ((.def_421 (not .def_420))) (let ((.def_422 (or .def_421 .def_416))) (let ((.def_423 (or .def_422 .def_414))) (let ((.def_424 (or A2 .def_91))) (let ((.def_425 (not .def_424))) (let ((.def_426 (+ .def_1 .def_189))) (let ((.def_427 (< .def_426 (- 1)))) (let ((.def_428 (not .def_427))) (let ((.def_429 (+ .def_155 .def_6))) (let ((.def_430 (< .def_429 (- 1)))) (let ((.def_431 (or .def_430 .def_428))) (let ((.def_432 (and .def_431 .def_425))) (let ((.def_433 (or A6 A0))) (let ((.def_434 (not .def_433))) (let ((.def_435 (and A4 .def_19))) (let ((.def_436 (not .def_435))) (let ((.def_437 (= .def_436 .def_434))) (let ((.def_438 (or .def_437 .def_432))) (let ((.def_439 (or .def_438 .def_423))) (let ((.def_440 (or .def_346 .def_353))) (let ((.def_441 (+ .def_32 .def_6))) (let ((.def_442 (< .def_441 (- 1)))) (let ((.def_443 (not .def_442))) (let ((.def_444 (or .def_443 A1))) (let ((.def_445 (not .def_444))) (let ((.def_446 (and .def_445 .def_440))) (let ((.def_447 (not .def_446))) (let ((.def_448 (+ .def_32 .def_79))) (let ((.def_449 (< .def_448 1))) (let ((.def_450 (and .def_233 .def_449))) (let ((.def_451 (not .def_450))) (let ((.def_452 (and .def_127 A4))) (let ((.def_453 (and .def_452 .def_451))) (let ((.def_454 (not .def_453))) (let ((.def_455 (or .def_454 .def_447))) (let ((.def_456 (not .def_455))) (let ((.def_457 (+ .def_45 .def_0))) (let ((.def_458 (< .def_457 1))) (let ((.def_459 (and .def_458 A9))) (let ((.def_460 (not .def_459))) (let ((.def_461 (< .def_155 (- 1)))) (let ((.def_462 (not .def_461))) (let ((.def_463 (and .def_462 A7))) (let ((.def_464 (not .def_463))) (let ((.def_465 (and .def_464 .def_460))) (let ((.def_466 (not .def_465))) (let ((.def_467 (or .def_137 .def_357))) (let ((.def_468 (< .def_185 (- 1)))) (let ((.def_469 (+ .def_26 .def_189))) (let ((.def_470 (< .def_469 (- 1)))) (let ((.def_471 (and .def_470 .def_468))) (let ((.def_472 (or .def_471 .def_467))) (let ((.def_473 (or .def_472 .def_466))) (let ((.def_474 (not .def_473))) (let ((.def_475 (or .def_474 .def_456))) (let ((.def_476 (or .def_475 .def_439))) (let ((.def_477 (and .def_476 .def_408))) (let ((.def_478 (and .def_136 A3))) (let ((.def_479 (not .def_478))) (let ((.def_480 (not .def_364))) (let ((.def_481 (= A1 .def_480))) (let ((.def_482 (and .def_481 .def_479))) (let ((.def_483 (not A9))) (let ((.def_484 (or .def_325 .def_483))) (let ((.def_485 (+ .def_79 .def_6))) (let ((.def_486 (< .def_485 (- 1)))) (let ((.def_487 (not .def_486))) (let ((.def_488 (or .def_91 .def_487))) (let ((.def_489 (= .def_488 .def_484))) (let ((.def_490 (not .def_489))) (let ((.def_491 (or .def_490 .def_482))) (let ((.def_492 (not .def_491))) (let ((.def_493 (and A3 A5))) (let ((.def_494 (< .def_6 (- 1)))) (let ((.def_495 (= .def_55 .def_494))) (let ((.def_496 (not .def_495))) (let ((.def_497 (or .def_496 .def_493))) (let ((.def_498 (not .def_497))) (let ((.def_499 (+ .def_104 .def_88))) (let ((.def_500 (< .def_499 (- 1)))) (let ((.def_501 (+ .def_97 .def_65))) (let ((.def_502 (< .def_501 (- 1)))) (let ((.def_503 (or .def_502 .def_500))) (let ((.def_504 (+ .def_97 .def_189))) (let ((.def_505 (< .def_504 (- 1)))) (let ((.def_506 (+ .def_12 .def_1))) (let ((.def_507 (< .def_506 (- 1)))) (let ((.def_508 (or .def_507 .def_505))) (let ((.def_509 (and .def_508 .def_503))) (let ((.def_510 (and .def_509 .def_498))) (let ((.def_511 (and .def_510 .def_492))) (let ((.def_512 (< .def_162 (- 1)))) (let ((.def_513 (not .def_512))) (let ((.def_514 (and .def_513 .def_19))) (let ((.def_515 (not .def_514))) (let ((.def_516 (+ .def_71 .def_26))) (let ((.def_517 (< .def_516 1))) (let ((.def_518 (or .def_483 .def_517))) (let ((.def_519 (and .def_518 .def_515))) (let ((.def_520 (and A9 .def_70))) (let ((.def_521 (not .def_520))) (let ((.def_522 (+ .def_12 .def_146))) (let ((.def_523 (< .def_522 (- 1)))) (let ((.def_524 (not .def_523))) (let ((.def_525 (or A8 .def_524))) (let ((.def_526 (or .def_525 .def_521))) (let ((.def_527 (and .def_526 .def_519))) (let ((.def_528 (not .def_527))) (let ((.def_529 (and A9 .def_59))) (let ((.def_530 (not .def_529))) (let ((.def_531 (< .def_93 (- 1)))) (let ((.def_532 (or A2 .def_531))) (let ((.def_533 (or .def_532 .def_530))) (let ((.def_534 (< .def_88 (- 1)))) (let ((.def_535 (not .def_534))) (let ((.def_536 (or .def_535 .def_353))) (let ((.def_537 (not .def_531))) (let ((.def_538 (or .def_357 .def_537))) (let ((.def_539 (not .def_538))) (let ((.def_540 (and .def_539 .def_536))) (let ((.def_541 (not .def_540))) (let ((.def_542 (and .def_541 .def_533))) (let ((.def_543 (not .def_542))) (let ((.def_544 (and .def_543 .def_528))) (let ((.def_545 (not .def_544))) (let ((.def_546 (or .def_545 .def_511))) (let ((.def_547 (+ .def_71 .def_155))) (let ((.def_548 (< .def_547 1))) (let ((.def_549 (not .def_548))) (let ((.def_550 (and .def_549 .def_19))) (let ((.def_551 (and .def_137 .def_70))) (let ((.def_552 (and .def_551 .def_550))) (let ((.def_553 (+ .def_12 .def_142))) (let ((.def_554 (< .def_553 (- 1)))) (let ((.def_555 (or .def_554 .def_174))) (let ((.def_556 (or .def_136 .def_384))) (let ((.def_557 (and .def_556 .def_555))) (let ((.def_558 (not .def_557))) (let ((.def_559 (= .def_558 .def_552))) (let ((.def_560 (not .def_559))) (let ((.def_561 (+ .def_12 .def_88))) (let ((.def_562 (< .def_561 1))) (let ((.def_563 (not .def_562))) (let ((.def_564 (and .def_480 .def_563))) (let ((.def_565 (or A9 .def_64))) (let ((.def_566 (not .def_565))) (let ((.def_567 (or .def_566 .def_564))) (let ((.def_568 (not .def_567))) (let ((.def_569 (< .def_32 1))) (let ((.def_570 (or .def_569 .def_56))) (let ((.def_571 (not .def_570))) (let ((.def_572 (or A1 A8))) (let ((.def_573 (or .def_572 .def_571))) (let ((.def_574 (and .def_573 .def_568))) (let ((.def_575 (not .def_574))) (let ((.def_576 (or .def_575 .def_560))) (let ((.def_577 (< .def_104 (- 1)))) (let ((.def_578 (and .def_577 A6))) (let ((.def_579 (not .def_578))) (let ((.def_580 (+ .def_6 .def_0))) (let ((.def_581 (< .def_580 1))) (let ((.def_582 (+ .def_6 .def_155))) (let ((.def_583 (< .def_582 1))) (let ((.def_584 (not .def_583))) (let ((.def_585 (or .def_584 .def_581))) (let ((.def_586 (or .def_585 .def_579))) (let ((.def_587 (+ .def_45 .def_189))) (let ((.def_588 (< .def_587 (- 1)))) (let ((.def_589 (not .def_588))) (let ((.def_590 (and .def_589 .def_301))) (let ((.def_591 (or A1 .def_18))) (let ((.def_592 (and .def_591 .def_590))) (let ((.def_593 (not .def_592))) (let ((.def_594 (and .def_593 .def_586))) (let ((.def_595 (or A0 A0))) (let ((.def_596 (+ .def_142 .def_79))) (let ((.def_597 (< .def_596 1))) (let ((.def_598 (not .def_597))) (let ((.def_599 (or .def_598 .def_18))) (let ((.def_600 (not .def_599))) (let ((.def_601 (= .def_600 .def_595))) (let ((.def_602 (and .def_64 .def_137))) (let ((.def_603 (and .def_346 A1))) (let ((.def_604 (not .def_603))) (let ((.def_605 (= .def_604 .def_602))) (let ((.def_606 (or .def_605 .def_601))) (let ((.def_607 (not .def_606))) (let ((.def_608 (or .def_607 .def_594))) (let ((.def_609 (and .def_608 .def_576))) (let ((.def_610 (and .def_609 .def_546))) (let ((.def_611 (= .def_610 .def_477))) (let ((.def_612 (not .def_611))) (let ((.def_613 (and .def_612 .def_336))) (let ((.def_614 (not .def_613))) (let ((.def_615 (<= x9 1))) (let ((.def_616 (<= 0 x9))) (let ((.def_617 (<= x8 1))) (let ((.def_618 (<= 0 x8))) (let ((.def_619 (<= x7 1))) (let ((.def_620 (<= 0 x7))) (let ((.def_621 (<= x6 1))) (let ((.def_622 (<= 0 x6))) (let ((.def_623 (<= x5 1))) (let ((.def_624 (<= 0 x5))) (let ((.def_625 (<= x4 1))) (let ((.def_626 (<= 0 x4))) (let ((.def_627 (<= x3 1))) (let ((.def_628 (<= 0 x3))) (let ((.def_629 (<= x2 1))) (let ((.def_630 (<= 0 x2))) (let ((.def_631 (<= x1 1))) (let ((.def_632 (<= 0 x1))) (let ((.def_633 (<= x0 1))) (let ((.def_634 (<= 0 x0))) (let ((.def_635 (and .def_634 .def_633 .def_632 .def_631 .def_630 .def_629 .def_628 .def_627 .def_626 .def_625 .def_624 .def_623 .def_622 .def_621 .def_620 .def_619 .def_618 .def_617 .def_616 .def_615 .def_614))) .def_635)))))))))))))))))))))))))))))))))))))))))))))))))))))))))))))))))))))))))))))))))))))))))))))))))))))))))))))))))))))))))))))))))))))))))))))))))))))))))))))))))))))))))))))))))))))))))))))))))))))))))))))))))))))))))))))))))))))))))))))))))))))))))))))))))))))))))))))))))))))))))))))))))))))))))))))))))))))))))))))))))))))))))))))))))))))))))))))))))))))))))))))))))))))))))))))))))))))))))))))))))))))))))))))))))))))))))))))))))))))))))))))))))))))))))))))))))))))))))))))))))))))))))))))))))))))))))))))))))))))))))))))))))))))))))))))))))))))))))))))))))))))))))))))))))))))))))))))))))))))))))))))))))))))))))))))))))))))))))))))
(check-sat)
